; DUP1 MLOAD SWAP2 LT POP => SWAP1 POP MLOAD
(set-option :produce-proofs true)
; 
(set-info :status unknown)
(declare-fun storage_t ((_ BitVec 256) (_ BitVec 256) (_ BitVec 256) Int (_ BitVec 256)) (_ BitVec 256))
(declare-fun storage_s ((_ BitVec 256) (_ BitVec 256) (_ BitVec 256) Int (_ BitVec 256)) (_ BitVec 256))
(declare-fun exc_halt_t (Int) Bool)
(declare-fun exc_halt_s (Int) Bool)
(declare-fun stack_t ((_ BitVec 256) (_ BitVec 256) (_ BitVec 256) Int (_ BitVec 6)) (_ BitVec 256))
(declare-fun stack_s ((_ BitVec 256) (_ BitVec 256) (_ BitVec 256) Int (_ BitVec 6)) (_ BitVec 256))
(declare-fun sc_t (Int) (_ BitVec 6))
(declare-fun sc_s (Int) (_ BitVec 6))
(declare-fun used_gas_t ((_ BitVec 256) (_ BitVec 256) (_ BitVec 256) Int) Int)
(declare-fun used_gas_s ((_ BitVec 256) (_ BitVec 256) (_ BitVec 256) Int) Int)
(declare-fun f_MLOAD ((_ BitVec 256) (_ BitVec 256) (_ BitVec 256) (_ BitVec 256)) (_ BitVec 256))
(assert
 (exists ((x_0 (_ BitVec 256)) (x_1 (_ BitVec 256)) (x_MLOAD_0 (_ BitVec 256)) )(let (($x3108 (forall ((w (_ BitVec 256)) )(let ((?x3111 (storage_t x_0 x_1 x_MLOAD_0 3 w)))
 (let ((?x3112 (storage_s x_0 x_1 x_MLOAD_0 5 w)))
 (= ?x3112 ?x3111))))
 ))
 (let (($x4125 (exc_halt_t 3)))
 (let (($x3979 (exc_halt_s 5)))
 (let (($x3272 (= $x3979 $x4125)))
 (let (($x2134 (forall ((n (_ BitVec 6)) )(let ((?x3109 (stack_t x_0 x_1 x_MLOAD_0 3 n)))
 (let ((?x3110 (stack_s x_0 x_1 x_MLOAD_0 5 n)))
 (let (($x3113 (= ?x3110 ?x3109)))
 (or (bvsle (sc_t 3) n) $x3113)))))
 ))
 (let ((?x2012 (sc_t 3)))
 (let ((?x805 (sc_s 5)))
 (let (($x3612 (= ?x805 ?x2012)))
 (let ((?x494 (used_gas_t x_0 x_1 x_MLOAD_0 0)))
 (let ((?x2504 (used_gas_s x_0 x_1 x_MLOAD_0 0)))
 (let (($x2505 (= ?x2504 ?x494)))
 (let (($x2502 (forall ((w (_ BitVec 256)) )(let ((?x3103 (storage_t x_0 x_1 x_MLOAD_0 0 w)))
 (let ((?x2500 (storage_s x_0 x_1 x_MLOAD_0 0 w)))
 (= ?x2500 ?x3103))))
 ))
 (let (($x56 (exc_halt_t 0)))
 (let (($x57 (exc_halt_s 0)))
 (let (($x58 (= $x57 $x56)))
 (let (($x2164 (forall ((n (_ BitVec 6)) )(let ((?x63 (sc_t 0)))
 (let (($x3470 (bvsle ?x63 n)))
 (let ((?x473 (stack_t x_0 x_1 x_MLOAD_0 0 n)))
 (let ((?x474 (stack_s x_0 x_1 x_MLOAD_0 0 n)))
 (let (($x476 (= ?x474 ?x473)))
 (or $x476 $x3470)))))))
 ))
 (let ((?x63 (sc_t 0)))
 (let ((?x72 (sc_s 0)))
 (let (($x73 (= ?x72 ?x63)))
 (let (($x2183 (= $x4125 (or (exc_halt_t 2) (not (bvsle (_ bv0 6) (bvadd (_ bv63 6) (sc_t 2))))))))
 (let (($x2188 (forall ((w (_ BitVec 256)) )(let ((?x3223 (storage_t x_0 x_1 x_MLOAD_0 2 w)))
 (let ((?x3111 (storage_t x_0 x_1 x_MLOAD_0 3 w)))
 (= ?x3111 ?x3223))))
 ))
 (let (($x140 (forall ((n (_ BitVec 6)) )(let ((?x2490 (stack_t x_0 x_1 x_MLOAD_0 2 n)))
 (let ((?x3109 (stack_t x_0 x_1 x_MLOAD_0 3 n)))
 (or (= ?x3109 ?x2490) (bvsle (bvadd (_ bv63 6) (sc_t 2)) n)))))
 ))
 (let (($x2225 (= (used_gas_t x_0 x_1 x_MLOAD_0 3) (+ 3 (used_gas_t x_0 x_1 x_MLOAD_0 2)))))
 (let ((?x2254 (f_MLOAD x_0 x_1 x_MLOAD_0 (stack_t x_0 x_1 x_MLOAD_0 2 (bvadd (_ bv63 6) (sc_t 2))))))
 (let (($x903 (exc_halt_t 2)))
 (let (($x2279 (= $x903 (or (exc_halt_t 1) (not (bvsle (_ bv0 6) (bvadd (_ bv63 6) (sc_t 1))))))))
 (let (($x2317 (forall ((w (_ BitVec 256)) )(let ((?x2156 (storage_t x_0 x_1 x_MLOAD_0 1 w)))
 (let ((?x3223 (storage_t x_0 x_1 x_MLOAD_0 2 w)))
 (= ?x3223 ?x2156))))
 ))
 (let (($x2315 (forall ((n (_ BitVec 6)) )(let ((?x2148 (stack_t x_0 x_1 x_MLOAD_0 1 n)))
 (let ((?x2490 (stack_t x_0 x_1 x_MLOAD_0 2 n)))
 (or (bvsle (bvadd (_ bv63 6) (sc_t 1)) n) (= ?x2490 ?x2148)))))
 ))
 (let ((?x3100 (used_gas_t x_0 x_1 x_MLOAD_0 2)))
 (let (($x2982 (forall ((w (_ BitVec 256)) )(let ((?x3103 (storage_t x_0 x_1 x_MLOAD_0 0 w)))
 (let ((?x2156 (storage_t x_0 x_1 x_MLOAD_0 1 w)))
 (= ?x2156 ?x3103))))
 ))
 (let (($x1890 (forall ((n (_ BitVec 6)) )(let ((?x473 (stack_t x_0 x_1 x_MLOAD_0 0 n)))
 (let ((?x2148 (stack_t x_0 x_1 x_MLOAD_0 1 n)))
 (or (= ?x2148 ?x473) (bvsle (bvadd (_ bv62 6) (sc_t 0)) n)))))
 ))
 (let (($x3008 (= (stack_t x_0 x_1 x_MLOAD_0 1 (bvadd (_ bv62 6) (sc_t 1))) (stack_t x_0 x_1 x_MLOAD_0 0 (bvadd (_ bv63 6) ?x63)))))
 (let (($x2342 (= (stack_t x_0 x_1 x_MLOAD_0 1 (bvadd (_ bv63 6) (sc_t 1))) (stack_t x_0 x_1 x_MLOAD_0 0 (bvadd (_ bv62 6) ?x63)))))
 (let (($x2366 (= $x3979 (or (exc_halt_s 4) (not (bvsle (_ bv0 6) (bvadd (_ bv63 6) (sc_s 4))))))))
 (let (($x2408 (forall ((w (_ BitVec 256)) )(let ((?x2919 (storage_s x_0 x_1 x_MLOAD_0 4 w)))
 (let ((?x3112 (storage_s x_0 x_1 x_MLOAD_0 5 w)))
 (= ?x3112 ?x2919))))
 ))
 (let (($x2409 (forall ((n (_ BitVec 6)) )(let ((?x2210 (stack_s x_0 x_1 x_MLOAD_0 4 n)))
 (let ((?x3110 (stack_s x_0 x_1 x_MLOAD_0 5 n)))
 (or (bvsle (bvadd (_ bv63 6) (sc_s 4)) n) (= ?x3110 ?x2210)))))
 ))
 (let (($x2436 (= (used_gas_s x_0 x_1 x_MLOAD_0 5) (+ 2 (used_gas_s x_0 x_1 x_MLOAD_0 4)))))
 (let (($x64 (exc_halt_s 4)))
 (let (($x2446 (= $x64 (or (exc_halt_s 3) (not (bvsle (_ bv0 6) (bvadd (_ bv62 6) (sc_s 3))))))))
 (let (($x2453 (forall ((w (_ BitVec 256)) )(let ((?x2232 (storage_s x_0 x_1 x_MLOAD_0 3 w)))
 (let ((?x2919 (storage_s x_0 x_1 x_MLOAD_0 4 w)))
 (= ?x2919 ?x2232))))
 ))
 (let (($x489 (forall ((n (_ BitVec 6)) )(let ((?x2920 (stack_s x_0 x_1 x_MLOAD_0 3 n)))
 (let ((?x2210 (stack_s x_0 x_1 x_MLOAD_0 4 n)))
 (or (= ?x2210 ?x2920) (bvsle (bvadd (_ bv62 6) (sc_s 3)) n)))))
 ))
 (let ((?x2230 (used_gas_s x_0 x_1 x_MLOAD_0 4)))
 (let ((?x275 (sc_s 3)))
 (let ((?x3627 (bvadd (_ bv63 6) ?x275)))
 (let ((?x2438 (stack_s x_0 x_1 x_MLOAD_0 3 ?x3627)))
 (let ((?x3082 (bvadd (_ bv62 6) ?x275)))
 (let ((?x3083 (stack_s x_0 x_1 x_MLOAD_0 3 ?x3082)))
 (let (($x2867 (= (stack_s x_0 x_1 x_MLOAD_0 4 (bvadd (_ bv63 6) (sc_s 4))) (ite (bvule ?x3083 ?x2438) (_ bv0 256) (_ bv1 256)))))
 (let (($x292 (exc_halt_s 3)))
 (let (($x2873 (= $x292 (or (exc_halt_s 2) (not (bvsle (_ bv0 6) (bvadd (_ bv61 6) (sc_s 2))))))))
 (let (($x2131 (forall ((w (_ BitVec 256)) )(let ((?x2283 (storage_s x_0 x_1 x_MLOAD_0 2 w)))
 (let ((?x2232 (storage_s x_0 x_1 x_MLOAD_0 3 w)))
 (= ?x2232 ?x2283))))
 ))
 (let (($x2120 (forall ((n (_ BitVec 6)) )(let ((?x2287 (stack_s x_0 x_1 x_MLOAD_0 2 n)))
 (let ((?x2920 (stack_s x_0 x_1 x_MLOAD_0 3 n)))
 (or (= ?x2920 ?x2287) (bvsle (bvadd (_ bv61 6) (sc_s 2)) n)))))
 ))
 (let ((?x2243 (used_gas_s x_0 x_1 x_MLOAD_0 3)))
 (let ((?x218 (sc_s 2)))
 (let ((?x3560 (bvadd (_ bv63 6) ?x218)))
 (let ((?x2414 (stack_s x_0 x_1 x_MLOAD_0 2 ?x3560)))
 (let (($x247 (exc_halt_s 2)))
 (let (($x3078 (= $x247 (or (exc_halt_s 1) (not (bvsle (_ bv0 6) (bvadd (_ bv63 6) (sc_s 1))))))))
 (let (($x3074 (forall ((w (_ BitVec 256)) )(let ((?x2308 (storage_s x_0 x_1 x_MLOAD_0 1 w)))
 (let ((?x2283 (storage_s x_0 x_1 x_MLOAD_0 2 w)))
 (= ?x2283 ?x2308))))
 ))
 (let (($x3077 (forall ((n (_ BitVec 6)) )(let ((?x2955 (stack_s x_0 x_1 x_MLOAD_0 1 n)))
 (let ((?x2287 (stack_s x_0 x_1 x_MLOAD_0 2 n)))
 (or (= ?x2287 ?x2955) (bvsle (bvadd (_ bv63 6) (sc_s 1)) n)))))
 ))
 (let ((?x154 (sc_s 1)))
 (let (($x3567 (= ?x218 ?x154)))
 (let ((?x2936 (used_gas_s x_0 x_1 x_MLOAD_0 2)))
 (let ((?x3496 (bvadd (_ bv63 6) ?x154)))
 (let ((?x3043 (stack_s x_0 x_1 x_MLOAD_0 1 ?x3496)))
 (let (($x2412 (or $x57 (not (bvsle (_ bv0 6) (bvadd (_ bv63 6) ?x72))) (not (= ((_ extract 6 6) (bvadd (_ bv1 7) (concat (_ bv0 1) ?x72))) (_ bv0 1))))))
 (let (($x189 (exc_halt_s 1)))
 (let (($x3056 (forall ((w (_ BitVec 256)) )(let ((?x2500 (storage_s x_0 x_1 x_MLOAD_0 0 w)))
 (let ((?x2308 (storage_s x_0 x_1 x_MLOAD_0 1 w)))
 (= ?x2308 ?x2500))))
 ))
 (let (($x3054 (forall ((n (_ BitVec 6)) )(let ((?x474 (stack_s x_0 x_1 x_MLOAD_0 0 n)))
 (let ((?x2955 (stack_s x_0 x_1 x_MLOAD_0 1 n)))
 (or (= ?x2955 ?x474) (bvsle (bvadd (_ bv63 6) (sc_s 0)) n)))))
 ))
 (let ((?x3522 (bvadd (_ bv63 6) ?x72)))
 (let ((?x3045 (stack_s x_0 x_1 x_MLOAD_0 0 ?x3522)))
 (let (($x3042 (forall ((w0 (_ BitVec 256)) )(let ((?x2364 (ite (= (stack_s x_0 x_1 x_MLOAD_0 1 (bvadd (_ bv63 6) (sc_s 1))) w0) x_MLOAD_0 (_ bv0 256))))
 (let ((?x3000 (f_MLOAD x_0 x_1 x_MLOAD_0 w0)))
 (= ?x3000 ?x2364))))
 ))
 (let (($x3024 (forall ((w (_ BitVec 256)) )(let ((?x2500 (storage_s x_0 x_1 x_MLOAD_0 0 w)))
 (= ?x2500 (_ bv0 256))))
 ))
 (let (($x3011 (= ?x2504 0)))
 (let (($x3503 (not $x57)))
 (let (($x3025 (= (stack_s x_0 x_1 x_MLOAD_0 0 (_ bv1 6)) x_1)))
 (let (($x3027 (= (stack_s x_0 x_1 x_MLOAD_0 0 (_ bv0 6)) x_0)))
 (let (($x2521 (= ?x72 (_ bv2 6))))
 (and $x2521 $x3027 $x3025 $x3503 $x3011 $x3024 $x3042 (= ?x3043 ?x3045) (= (stack_s x_0 x_1 x_MLOAD_0 1 ?x3522) ?x3045) (= (used_gas_s x_0 x_1 x_MLOAD_0 1) (+ 3 ?x2504)) (= ?x154 (bvadd (_ bv1 6) ?x72)) $x3054 $x3056 (= $x189 $x2412) (= ?x2414 (f_MLOAD x_0 x_1 x_MLOAD_0 ?x3043)) (= ?x2936 (+ 3 (used_gas_s x_0 x_1 x_MLOAD_0 1))) $x3567 $x3077 $x3074 $x3078 (= ?x2438 (stack_s x_0 x_1 x_MLOAD_0 2 (bvadd (_ bv61 6) ?x218))) (= (stack_s x_0 x_1 x_MLOAD_0 3 (bvadd (_ bv61 6) ?x275)) ?x2414) (= ?x3083 (stack_s x_0 x_1 x_MLOAD_0 2 (bvadd (_ bv62 6) ?x218))) (= ?x2243 (+ 3 ?x2936)) (= ?x275 ?x218) $x2120 $x2131 $x2873 $x2867 (= ?x2230 (+ 3 ?x2243)) (= (sc_s 4) ?x3627) $x489 $x2453 $x2446 $x2436 (= ?x805 (bvadd (_ bv63 6) (sc_s 4))) $x2409 $x2408 $x2366 $x2342 $x3008 (= (used_gas_t x_0 x_1 x_MLOAD_0 1) (+ 3 ?x494)) (= (sc_t 1) ?x63) $x1890 $x2982 (= (exc_halt_t 1) (or $x56 (not (bvsle (_ bv0 6) (bvadd (_ bv62 6) ?x63))))) (= ?x3100 (+ 2 (used_gas_t x_0 x_1 x_MLOAD_0 1))) (= (sc_t 2) (bvadd (_ bv63 6) (sc_t 1))) $x2315 $x2317 $x2279 (= (stack_t x_0 x_1 x_MLOAD_0 3 (bvadd (_ bv63 6) ?x2012)) ?x2254) $x2225 (= ?x2012 (sc_t 2)) $x140 $x2188 $x2183 $x73 $x2164 $x58 $x2502 $x2505 (not (and $x3612 $x2134 $x3272 $x3108))))))))))))))))))))))))))))))))))))))))))))))))))))))))))))))))))))))))))))))))))
 )
(check-sat)
(get-proof)
